52
24
0 24 26 27 29 32 33 34 35 36 37 39 43 44 45 46 47 49 51
1 24 26 27 29 30 32 33 34 36 38 39 44 45 50 51
2 24 26 28 29 30 32 33 34 35 36 38 39 40 43 44 45 46 49 50
3 24 25 26 29 31 32 34 36 40 42 45 46 47 48 51
4 24 26 28 32 33 34 36 37 39 44 45 48 49 51
5 24 26 27 28 29 30 32 34 35 36 39 42 44 48 49
6 24 27 28 29 33 37 39 40 44 45 49 51
7 24 26 27 28 29 30 32 33 35 40 41 42 44 46 47 48 49 51
8 26 27 28 30 32 33 34 36 40 44 46 48
9 24 26 28 29 30 32 33 39 42 44 46 47 48 50
10 27 29 32 33 34 36 39 40 44
11 26 28 29 30 33 37 41 47 48 50
12 26 30 33 34 39 40 42 43 47 49
13 26 28 29 30 32 39 42 44 45 49 51
14 25 27 28 30 33 36 37 42 46 47 49 51
15 27 29 32 34 36 37 39 40 44 48 50 51
16 26 35 37 39 40 41 44
17 26 32 34 35 36 37 38 42 46 47 48 50 51
18 24 25 27 31 36 48
19 24 26 32 34 42
20 34 41 46 47
21 44 51
22 31 49
23 33 38
